
Gurobi 9.5.2 (mac64[arm]) logging started Fri Apr 28 18:10:29 2023

Set parameter LogFile to value "Java/output/iterative_model_2_machine/scenario_seed_4_nJob_30_machineCount_2/mip_increment_1/log.txt"
Gurobi Optimizer version 9.5.2 build v9.5.2rc0 (mac64[arm])
Thread count: 8 physical cores, 8 logical processors, using up to 8 threads
Optimize a model with 1532 rows, 8118 columns and 80081 nonzeros
Model fingerprint: 0x66b3e931
Variable types: 0 continuous, 8118 integer (8118 binary)
Coefficient statistics:
  Matrix range     [1e+00, 1e+02]
  Objective range  [2e+01, 2e+06]
  Bounds range     [1e+00, 1e+00]
  RHS range        [1e+00, 1e+00]
Presolve removed 280 rows and 1993 columns
Presolve time: 0.13s
Presolved: 1252 rows, 6125 columns, 58889 nonzeros
Variable types: 0 continuous, 6125 integer (6125 binary)

Root relaxation: objective 1.004821e+04, 833 iterations, 0.02 seconds (0.04 work units)

    Nodes    |    Current Node    |     Objective Bounds      |     Work
 Expl Unexpl |  Obj  Depth IntInf | Incumbent    BestBd   Gap | It/Node Time

     0     0 10048.2054    0   81          - 10048.2054      -     -    0s
H    0     0                    3848048.0000 10048.2054   100%     -    0s
H    0     0                    2163248.0000 10048.2054   100%     -    0s
H    0     0                    1756848.0000 10048.2054  99.4%     -    0s
H    0     0                    849728.00000 10048.2054  98.8%     -    0s
H    0     0                    542160.00000 10172.2737  98.1%     -    0s
H    0     0                    504928.00000 10172.2737  98.0%     -    0s
     0     0 10783.6959    0  113 504928.000 10783.6959  97.9%     -    0s
H    0     0                    488928.00000 10783.6959  97.8%     -    0s
     0     0 11779.0846    0  106 488928.000 11779.0846  97.6%     -    0s
     0     0 11779.0846    0  107 488928.000 11779.0846  97.6%     -    0s
H    0     0                    146512.00000 13044.8226  91.1%     -    0s
     0     0 13044.8226    0  111 146512.000 13044.8226  91.1%     -    0s
H    0     0                    144496.00000 13044.8226  91.0%     -    0s
     0     0 13087.9886    0  135 144496.000 13087.9886  90.9%     -    0s
     0     0 13116.9316    0  128 144496.000 13116.9316  90.9%     -    0s
     0     0 13117.0212    0  122 144496.000 13117.0212  90.9%     -    0s
     0     0 16487.7498    0  130 144496.000 16487.7498  88.6%     -    0s
     0     0 16487.7498    0   85 144496.000 16487.7498  88.6%     -    0s
     0     0 16487.7498    0  109 144496.000 16487.7498  88.6%     -    0s
H    0     0                    109504.00000 16487.7498  84.9%     -    0s
     0     0 16790.7694    0  124 109504.000 16790.7694  84.7%     -    0s
     0     0 17530.8963    0  127 109504.000 17530.8963  84.0%     -    0s
     0     0 17554.3926    0  127 109504.000 17554.3926  84.0%     -    0s
     0     0 18794.8239    0  165 109504.000 18794.8239  82.8%     -    0s
H    0     0                    101584.00000 18794.8239  81.5%     -    0s
     0     0 18841.2063    0  160 101584.000 18841.2063  81.5%     -    0s
     0     0 18853.3470    0  163 101584.000 18853.3470  81.4%     -    0s
     0     0 18854.4666    0  166 101584.000 18854.4666  81.4%     -    0s
H    0     0                    73680.000000 18854.4666  74.4%     -    0s
     0     0 23407.6276    0  148 73680.0000 23407.6276  68.2%     -    0s
H    0     0                    73664.000000 23407.6276  68.2%     -    0s
H    0     0                    69552.000000 23407.6276  66.3%     -    0s
     0     0 23464.1108    0  159 69552.0000 23464.1108  66.3%     -    0s
     0     0 23612.4223    0  141 69552.0000 23612.4223  66.1%     -    0s
     0     0 23646.9026    0  143 69552.0000 23646.9026  66.0%     -    0s
     0     0 23646.9026    0  143 69552.0000 23646.9026  66.0%     -    0s
H    0     0                    64192.000000 23646.9026  63.2%     -    1s
H    0     0                    64176.000000 23646.9026  63.2%     -    1s
     0     0 26223.7835    0  150 64176.0000 26223.7835  59.1%     -    1s
H    0     0                    45024.000000 26223.7835  41.8%     -    1s
     0     0 26312.0000    0   14 45024.0000 26312.0000  41.6%     -    1s
     0     0 26731.0712    0  118 45024.0000 26731.0712  40.6%     -    1s
H    0     0                    28752.000000 26731.0712  7.03%     -    1s
     0     0 26802.4546    0  146 28752.0000 26802.4546  6.78%     -    1s
     0     0 26803.3944    0  148 28752.0000 26803.3944  6.78%     -    1s
     0     0 27011.6738    0  151 28752.0000 27011.6738  6.05%     -    1s
     0     0 27011.6738    0   36 28752.0000 27011.6738  6.05%     -    1s
     0     0 27011.6738    0   50 28752.0000 27011.6738  6.05%     -    1s
H    0     0                    27808.000000 27011.6738  2.86%     -    1s
H    0     0                    27792.000000 27011.6738  2.81%     -    1s
     0     0     cutoff    0      27792.0000 27792.0000  0.00%     -    1s

Cutting planes:
  Gomory: 7
  Cover: 4
  Clique: 22
  MIR: 16
  StrongCG: 2
  GUB cover: 17
  Zero half: 2
  RLT: 1

Explored 1 nodes (7987 simplex iterations) in 1.21 seconds (1.90 work units)
Thread count was 8 (of 8 available processors)

Solution count 10: 27792 27808 28752 ... 101584

Optimal solution found (tolerance 1.00e-04)
Best objective 2.779200000000e+04, best bound 2.779200000000e+04, gap 0.0000%

Gurobi 9.5.2 (mac64[arm]) logging started Fri Apr 28 18:10:30 2023

Set parameter LogFile to value "Java/output/iterative_model_2_machine/scenario_seed_4_nJob_30_machineCount_2/mip_increment_1/log.txt"
Gurobi Optimizer version 9.5.2 build v9.5.2rc0 (mac64[arm])
Thread count: 8 physical cores, 8 logical processors, using up to 8 threads
Optimize a model with 1526 rows, 5254 columns and 62077 nonzeros
Model fingerprint: 0x6af7d6a9
Variable types: 0 continuous, 5254 integer (5254 binary)
Coefficient statistics:
  Matrix range     [1e+00, 1e+02]
  Objective range  [2e+02, 2e+05]
  Bounds range     [1e+00, 1e+00]
  RHS range        [1e+00, 1e+00]
Found heuristic solution: objective 843548.00000
Presolve removed 585 rows and 1171 columns
Presolve time: 0.08s
Presolved: 941 rows, 4083 columns, 47377 nonzeros
Variable types: 0 continuous, 4083 integer (4083 binary)
Found heuristic solution: objective 817428.00000

Root relaxation: objective 3.405884e+04, 529 iterations, 0.01 seconds (0.01 work units)

    Nodes    |    Current Node    |     Objective Bounds      |     Work
 Expl Unexpl |  Obj  Depth IntInf | Incumbent    BestBd   Gap | It/Node Time

     0     0 34058.8365    0   35 817428.000 34058.8365  95.8%     -    0s
H    0     0                    167640.00000 34058.8365  79.7%     -    0s
H    0     0                    153660.00000 34058.8365  77.8%     -    0s
H    0     0                    93760.000000 34058.8365  63.7%     -    0s
H    0     0                    79124.000000 34058.8365  57.0%     -    0s
H    0     0                    55128.000000 34067.8787  38.2%     -    0s
     0     0 34304.5855    0   46 55128.0000 34304.5855  37.8%     -    0s
H    0     0                    54968.000000 34304.5855  37.6%     -    0s
     0     0 34304.5855    0   36 54968.0000 34304.5855  37.6%     -    0s
     0     0 34754.3024    0   64 54968.0000 34754.3024  36.8%     -    0s
     0     0 34783.4747    0   65 54968.0000 34783.4747  36.7%     -    0s
     0     0 34786.1437    0   65 54968.0000 34786.1437  36.7%     -    0s
H    0     0                    53884.000000 37832.3273  29.8%     -    0s
     0     0 37832.3273    0   89 53884.0000 37832.3273  29.8%     -    0s
     0     0 37846.8073    0   91 53884.0000 37846.8073  29.8%     -    0s
H    0     0                    50624.000000 37943.1127  25.0%     -    0s
     0     0 37943.1127    0   97 50624.0000 37943.1127  25.0%     -    0s
     0     0 38073.3333    0   77 50624.0000 38073.3333  24.8%     -    0s
     0     0 39519.2234    0  118 50624.0000 39519.2234  21.9%     -    0s
     0     0 40004.5571    0   86 50624.0000 40004.5571  21.0%     -    0s
     0     0 40242.4829    0   97 50624.0000 40242.4829  20.5%     -    0s
     0     0 40335.5753    0  103 50624.0000 40335.5753  20.3%     -    0s
     0     0 40359.9893    0  109 50624.0000 40359.9893  20.3%     -    0s
     0     0 40536.3669    0   90 50624.0000 40536.3669  19.9%     -    0s
     0     0 40539.6654    0   93 50624.0000 40539.6654  19.9%     -    0s
     0     0 40539.6654    0   94 50624.0000 40539.6654  19.9%     -    0s
     0     0 41933.5222    0  116 50624.0000 41933.5222  17.2%     -    0s
     0     0 42595.6169    0  108 50624.0000 42595.6169  15.9%     -    0s
     0     0 43164.1587    0  118 50624.0000 43164.1587  14.7%     -    0s
     0     0 43183.1995    0  127 50624.0000 43183.1995  14.7%     -    0s
     0     0 43190.6407    0  127 50624.0000 43190.6407  14.7%     -    0s
     0     0 43359.4811    0  146 50624.0000 43359.4811  14.3%     -    0s
H    0     0                    44568.000000 43359.4811  2.71%     -    0s
     0     0 43376.0000    0   11 44568.0000 43376.0000  2.67%     -    0s
     0     0 43384.0864    0  143 44568.0000 43384.0864  2.66%     -    0s
     0     0 43388.0678    0  152 44568.0000 43388.0678  2.65%     -    0s
     0     0 43417.7822    0  149 44568.0000 43417.7822  2.58%     -    0s
     0     0 43417.7822    0   39 44568.0000 43417.7822  2.58%     -    0s
H    0     0                    44352.000000 43417.7822  2.11%     -    0s
     0     0 43417.7822    0   41 44352.0000 43417.7822  2.11%     -    0s
H    0     0                    44324.000000 43417.7822  2.04%     -    0s
     0     0 43417.7822    0   54 44324.0000 43417.7822  2.04%     -    0s
     0     0 43417.7822    0   21 44324.0000 43417.7822  2.04%     -    0s
     0     0 43428.0000    0   12 44324.0000 43428.0000  2.02%     -    0s
     0     0 43428.0000    0    2 44324.0000 43428.0000  2.02%     -    0s
H    0     0                    44320.000000 43428.0000  2.01%     -    0s
*    0     0               0    43428.000000 43428.0000  0.00%     -    0s

Cutting planes:
  Gomory: 6
  Cover: 7
  Clique: 10
  MIR: 10
  StrongCG: 6
  GUB cover: 23
  Zero half: 5
  RLT: 3

Explored 1 nodes (4976 simplex iterations) in 0.69 seconds (1.01 work units)
Thread count was 8 (of 8 available processors)

Solution count 10: 43428 44320 44324 ... 68164

Optimal solution found (tolerance 1.00e-04)
Best objective 4.342800000000e+04, best bound 4.342800000000e+04, gap 0.0000%

Gurobi 9.5.2 (mac64[arm]) logging started Fri Apr 28 18:10:31 2023

Set parameter LogFile to value "Java/output/iterative_model_2_machine/scenario_seed_4_nJob_30_machineCount_2/mip_increment_1/log.txt"
Gurobi Optimizer version 9.5.2 build v9.5.2rc0 (mac64[arm])
Thread count: 8 physical cores, 8 logical processors, using up to 8 threads
Optimize a model with 1530 rows, 3323 columns and 37321 nonzeros
Model fingerprint: 0x7722d77b
Variable types: 0 continuous, 3323 integer (3323 binary)
Coefficient statistics:
  Matrix range     [1e+00, 1e+02]
  Objective range  [6e+01, 3e+04]
  Bounds range     [1e+00, 1e+00]
  RHS range        [1e+00, 1e+00]
Presolve removed 1024 rows and 1433 columns
Presolve time: 0.05s
Presolved: 506 rows, 1890 columns, 19269 nonzeros
Variable types: 0 continuous, 1890 integer (1890 binary)

Root relaxation: objective 2.511052e+04, 900 iterations, 0.02 seconds (0.02 work units)

    Nodes    |    Current Node    |     Objective Bounds      |     Work
 Expl Unexpl |  Obj  Depth IntInf | Incumbent    BestBd   Gap | It/Node Time

     0     0 25110.5231    0   81          - 25110.5231      -     -    0s
H    0     0                    90778.000000 25110.5231  72.3%     -    0s
H    0     0                    85608.000000 25110.5231  70.7%     -    0s
H    0     0                    80986.000000 25110.5231  69.0%     -    0s
H    0     0                    69737.000000 25110.5231  64.0%     -    0s
H    0     0                    53385.000000 25110.5231  53.0%     -    0s
H    0     0                    48971.000000 25110.5231  48.7%     -    0s
H    0     0                    47207.000000 25837.0126  45.3%     -    0s
     0     0 25837.0126    0  104 47207.0000 25837.0126  45.3%     -    0s
H    0     0                    44248.000000 25837.0126  41.6%     -    0s
     0     0 25848.5381    0  112 44248.0000 25848.5381  41.6%     -    0s
     0     0 25852.8763    0  112 44248.0000 25852.8763  41.6%     -    0s
     0     0 25852.8763    0  112 44248.0000 25852.8763  41.6%     -    0s
     0     0 26237.7989    0  128 44248.0000 26237.7989  40.7%     -    0s
H    0     0                    43437.000000 26237.7989  39.6%     -    0s
     0     0 26270.6608    0  134 43437.0000 26270.6608  39.5%     -    0s
     0     0 26270.9690    0  138 43437.0000 26270.9690  39.5%     -    0s
H    0     0                    35264.000000 26617.6379  24.5%     -    0s
     0     0 26617.6379    0  148 35264.0000 26617.6379  24.5%     -    0s
H    0     0                    34662.000000 26617.6379  23.2%     -    0s
H    0     0                    33673.000000 26617.6379  21.0%     -    0s
     0     0 26726.0194    0  162 33673.0000 26726.0194  20.6%     -    0s
     0     0 26738.0151    0  162 33673.0000 26738.0151  20.6%     -    0s
     0     0 26744.5751    0  151 33673.0000 26744.5751  20.6%     -    0s
     0     0 26750.6192    0  140 33673.0000 26750.6192  20.6%     -    0s
     0     0 26752.8011    0  157 33673.0000 26752.8011  20.6%     -    0s
     0     0 26927.5188    0  189 33673.0000 26927.5188  20.0%     -    0s
H    0     0                    32873.000000 26927.5188  18.1%     -    0s
     0     0 26970.0600    0  177 32873.0000 26970.0600  18.0%     -    0s
     0     0 26974.5055    0  170 32873.0000 26974.5055  17.9%     -    0s
     0     0 26975.3240    0  189 32873.0000 26975.3240  17.9%     -    0s
H    0     0                    30747.000000 27085.4700  11.9%     -    0s
     0     0 27085.4700    0  165 30747.0000 27085.4700  11.9%     -    0s
H    0     0                    29331.000000 27085.4700  7.66%     -    0s
     0     0 27116.8081    0  183 29331.0000 27116.8081  7.55%     -    0s
     0     0 27128.8214    0  183 29331.0000 27128.8214  7.51%     -    0s
     0     0 27129.1494    0  185 29331.0000 27129.1494  7.51%     -    0s
     0     0 27167.5653    0  176 29331.0000 27167.5653  7.38%     -    0s
     0     0 27167.5653    0   76 29331.0000 27167.5653  7.38%     -    0s
H    0     0                    28840.000000 27167.5653  5.80%     -    0s
     0     0 27167.5653    0  148 28840.0000 27167.5653  5.80%     -    0s
     0     0 27167.5653    0  179 28840.0000 27167.5653  5.80%     -    0s
     0     0 27167.5653    0  173 28840.0000 27167.5653  5.80%     -    0s
     0     0 27167.5653    0  172 28840.0000 27167.5653  5.80%     -    0s
     0     0 27171.9172    0  183 28840.0000 27171.9172  5.78%     -    0s
     0     0 27194.0057    0  170 28840.0000 27194.0057  5.71%     -    0s
     0     0 27205.9690    0  177 28840.0000 27205.9690  5.67%     -    0s
     0     0 27206.9683    0  178 28840.0000 27206.9683  5.66%     -    0s
     0     0 27241.4885    0  195 28840.0000 27241.4885  5.54%     -    0s
     0     0 27246.3407    0  191 28840.0000 27246.3407  5.53%     -    0s
     0     0 27248.7378    0  179 28840.0000 27248.7378  5.52%     -    0s
     0     0 27248.8779    0  181 28840.0000 27248.8779  5.52%     -    0s
H    0     0                    28700.000000 27248.8779  5.06%     -    0s
     0     0 27296.4498    0  171 28700.0000 27296.4498  4.89%     -    0s
H    0     0                    28680.000000 27296.4498  4.82%     -    0s
     0     0 27315.7238    0  206 28680.0000 27315.7238  4.76%     -    0s
     0     0 27318.0787    0  204 28680.0000 27318.0787  4.75%     -    0s
     0     0 27318.2409    0  200 28680.0000 27318.2409  4.75%     -    0s
     0     0 27326.6223    0  207 28680.0000 27326.6223  4.72%     -    0s
H    0     0                    28611.000000 27326.6223  4.49%     -    0s
     0     0 27327.2274    0  207 28611.0000 27327.2274  4.49%     -    0s
     0     0 27328.4945    0  206 28611.0000 27328.4945  4.48%     -    0s
     0     0 27328.4945    0  199 28611.0000 27328.4945  4.48%     -    0s
H    0     0                    28040.000000 27328.4945  2.54%     -    0s
H    0     0                    27809.000000 27333.2073  1.71%     -    0s
     0     0 27333.2073    0   70 27809.0000 27333.2073  1.71%     -    1s
     0     0 27333.2073    0   94 27809.0000 27333.2073  1.71%     -    1s
     0     0 27333.2073    0   88 27809.0000 27333.2073  1.71%     -    1s
     0     0 27333.2073    0  120 27809.0000 27333.2073  1.71%     -    1s
     0     0 27333.6425    0  117 27809.0000 27333.6425  1.71%     -    1s
     0     0 27366.5625    0   69 27809.0000 27366.5625  1.59%     -    1s
     0     0 27368.4041    0  112 27809.0000 27368.4041  1.58%     -    1s
     0     0 27371.5217    0   96 27809.0000 27371.5217  1.57%     -    1s
     0     0 27371.5621    0   95 27809.0000 27371.5621  1.57%     -    1s
     0     0 27418.4671    0  129 27809.0000 27418.4671  1.40%     -    1s
     0     0 27418.4671    0   55 27809.0000 27418.4671  1.40%     -    1s
     0     0 27418.4671    0   78 27809.0000 27418.4671  1.40%     -    1s
     0     0 27739.1667    0   37 27809.0000 27739.1667  0.25%     -    1s
     0     0     cutoff    0      27809.0000 27809.0000  0.00%     -    1s

Cutting planes:
  Gomory: 2
  Cover: 1
  Clique: 13
  MIR: 10
  StrongCG: 3
  GUB cover: 11
  Zero half: 1
  RLT: 2

Explored 1 nodes (7463 simplex iterations) in 1.10 seconds (1.49 work units)
Thread count was 8 (of 8 available processors)

Solution count 10: 27809 27809 28040 ... 29331

Optimal solution found (tolerance 1.00e-04)
Best objective 2.780900000000e+04, best bound 2.780900000000e+04, gap 0.0000%

Gurobi 9.5.2 (mac64[arm]) logging started Fri Apr 28 18:10:32 2023

Set parameter LogFile to value "Java/output/iterative_model_2_machine/scenario_seed_4_nJob_30_machineCount_2/mip_increment_1/log.txt"
Gurobi Optimizer version 9.5.2 build v9.5.2rc0 (mac64[arm])
Thread count: 8 physical cores, 8 logical processors, using up to 8 threads
Optimize a model with 1636 rows, 23370 columns and 258600 nonzeros
Model fingerprint: 0xb63cc7ec
Variable types: 0 continuous, 23370 integer (23370 binary)
Coefficient statistics:
  Matrix range     [1e+00, 1e+02]
  Objective range  [5e+00, 2e+06]
  Bounds range     [1e+00, 1e+00]
  RHS range        [1e+00, 1e+00]

Warning: Completing partial solution with 23275 unfixed non-continuous variables out of 23370
User MIP start produced solution with objective 89689 (0.02s)
Loaded user MIP start with objective 89689

Presolve removed 134 rows and 4458 columns
Presolve time: 0.27s
Presolved: 1502 rows, 18912 columns, 210679 nonzeros
Variable types: 0 continuous, 18912 integer (18912 binary)
Found heuristic solution: objective 89688.000000

Root relaxation: objective 3.281293e+04, 12567 iterations, 1.06 seconds (2.38 work units)

    Nodes    |    Current Node    |     Objective Bounds      |     Work
 Expl Unexpl |  Obj  Depth IntInf | Incumbent    BestBd   Gap | It/Node Time

     0     0 32812.9320    0  318 89688.0000 32812.9320  63.4%     -    1s
H    0     0                    83332.000000 32812.9320  60.6%     -    1s
H    0     0                    83083.000000 33627.7276  59.5%     -    2s
     0     0 33627.7276    0  402 83083.0000 33627.7276  59.5%     -    2s
H    0     0                    83076.000000 33627.7276  59.5%     -    2s
H    0     0                    83060.000000 33627.7276  59.5%     -    2s
     0     0 33963.5095    0  419 83060.0000 33963.5095  59.1%     -    2s
     0     0 33963.5095    0  418 83060.0000 33963.5095  59.1%     -    3s
     0     0 33963.5095    0  420 83060.0000 33963.5095  59.1%     -    3s
     0     0 34835.0944    0  456 83060.0000 34835.0944  58.1%     -    4s
H    0     0                    82738.000000 34835.0944  57.9%     -    4s
     0     0 34988.6508    0  463 82738.0000 34988.6508  57.7%     -    4s
     0     0 34991.8184    0  458 82738.0000 34991.8184  57.7%     -    5s
     0     0 34991.8293    0  461 82738.0000 34991.8293  57.7%     -    5s
     0     0 36223.3335    0  509 82738.0000 36223.3335  56.2%     -    6s
H    0     0                    82685.000000 36223.3335  56.2%     -    6s
H    0     0                    82684.000000 36223.3335  56.2%     -    6s
     0     0 37126.6320    0  536 82684.0000 37126.6320  55.1%     -    7s
     0     0 37132.1982    0  521 82684.0000 37132.1982  55.1%     -    7s
     0     0 37139.4094    0  528 82684.0000 37139.4094  55.1%     -    7s
     0     0 37139.4617    0  521 82684.0000 37139.4617  55.1%     -    7s
     0     0 38746.6001    0  531 82684.0000 38746.6001  53.1%     -    8s
H    0     0                    82649.000000 38746.6001  53.1%     -    9s
     0     0 39575.8424    0  531 82649.0000 39575.8424  52.1%     -   10s
     0     0 39710.2949    0  571 82649.0000 39710.2949  52.0%     -   11s
     0     0 39733.3687    0  542 82649.0000 39733.3687  51.9%     -   11s
     0     0 39734.5276    0  554 82649.0000 39734.5276  51.9%     -   11s
     0     0 43623.5891    0  566 82649.0000 43623.5891  47.2%     -   12s
     0     0 43623.5891    0  338 82649.0000 43623.5891  47.2%     -   14s
H    0     0                    82621.000000 43623.5891  47.2%     -   14s
H    0     0                    82620.000000 43623.5891  47.2%     -   15s
     0     0 43623.5891    0  471 82620.0000 43623.5891  47.2%     -   15s
     0     0 43902.8024    0  562 82620.0000 43902.8024  46.9%     -   16s
     0     0 44124.1376    0  572 82620.0000 44124.1376  46.6%     -   17s
     0     0 44131.3639    0  564 82620.0000 44131.3639  46.6%     -   17s
     0     0 44132.9103    0  567 82620.0000 44132.9103  46.6%     -   17s
     0     0 48231.3768    0  552 82620.0000 48231.3768  41.6%     -   18s
     0     0 49221.1316    0  561 82620.0000 49221.1316  40.4%     -   19s
     0     0 49281.5211    0  586 82620.0000 49281.5211  40.4%     -   19s
     0     0 49296.1618    0  600 82620.0000 49296.1618  40.3%     -   19s
     0     0 49296.3764    0  596 82620.0000 49296.3764  40.3%     -   19s
     0     0 53083.6266    0  590 82620.0000 53083.6266  35.7%     -   20s
H    0     0                    78588.000000 53083.6266  32.5%     -   20s
     0     0 53433.3098    0  624 78588.0000 53433.3098  32.0%     -   21s
     0     0 53565.0520    0  638 78588.0000 53565.0520  31.8%     -   22s
     0     0 53577.2280    0  638 78588.0000 53577.2280  31.8%     -   22s
     0     0 53578.4490    0  638 78588.0000 53578.4490  31.8%     -   22s
     0     0 56684.2246    0  620 78588.0000 56684.2246  27.9%     -   24s
H    0     0                    78575.000000 56684.2246  27.9%     -   24s
     0     0 56788.9472    0  611 78575.0000 56788.9472  27.7%     -   24s
     0     0 56795.5246    0  620 78575.0000 56795.5246  27.7%     -   25s
     0     0 59312.7662    0  632 78575.0000 59312.7662  24.5%     -   26s
H    0     0                    78353.000000 59312.7662  24.3%     -   26s
     0     0 59522.3449    0  634 78353.0000 59522.3449  24.0%     -   27s
     0     0 59612.6225    0  652 78353.0000 59612.6225  23.9%     -   28s
     0     0 59623.5064    0  634 78353.0000 59623.5064  23.9%     -   28s
     0     0 60279.6019    0  647 78353.0000 60279.6019  23.1%     -   29s
     0     0 60473.7411    0  660 78353.0000 60473.7411  22.8%     -   30s
     0     0 60512.1169    0  678 78353.0000 60512.1169  22.8%     -   30s
     0     0 60515.5442    0  693 78353.0000 60515.5442  22.8%     -   31s
     0     0 61552.8478    0  673 78353.0000 61552.8478  21.4%     -   32s
H    0     0                    78089.000000 61552.8478  21.2%     -   32s
     0     0 61630.1226    0  703 78089.0000 61630.1226  21.1%     -   33s
     0     0 61642.2895    0  698 78089.0000 61642.2895  21.1%     -   33s
     0     0 62982.1655    0  661 78089.0000 62982.1655  19.3%     -   34s
H    0     0                    78088.000000 62982.1655  19.3%     -   34s
H    0     0                    78078.000000 62982.1655  19.3%     -   34s
     0     0 63154.4302    0  700 78078.0000 63154.4302  19.1%     -   35s
     0     0 63177.3159    0  706 78078.0000 63177.3159  19.1%     -   35s
     0     0 63180.9964    0  716 78078.0000 63180.9964  19.1%     -   35s
     0     0 63560.8210    0  693 78078.0000 63560.8210  18.6%     -   36s
     0     0 63683.8366    0  702 78078.0000 63683.8366  18.4%     -   36s
     0     0 63702.7395    0  710 78078.0000 63702.7395  18.4%     -   36s
     0     0 63898.4388    0  715 78078.0000 63898.4388  18.2%     -   37s
H    0     0                    78027.000000 63898.4388  18.1%     -   37s
     0     0 63969.1300    0  725 78027.0000 63969.1300  18.0%     -   38s
     0     0 63984.6467    0  728 78027.0000 63984.6467  18.0%     -   38s
     0     0 64186.2293    0  709 78027.0000 64186.2293  17.7%     -   38s
     0     0 64723.3295    0  727 78027.0000 64723.3295  17.1%     -   40s
     0     0 64999.8799    0  696 78027.0000 64999.8799  16.7%     -   41s
     0     0 65030.8085    0  710 78027.0000 65030.8085  16.7%     -   41s
     0     0 65039.2177    0  732 78027.0000 65039.2177  16.6%     -   41s
     0     0 65612.2388    0  738 78027.0000 65612.2388  15.9%     -   42s
H    0     0                    77065.000000 65612.2388  14.9%     -   42s
     0     0 65653.6795    0  727 77065.0000 65653.6795  14.8%     -   42s
     0     0 65667.0909    0  766 77065.0000 65667.0909  14.8%     -   42s
     0     0 66176.3168    0  750 77065.0000 66176.3168  14.1%     -   43s
     0     0 66219.1768    0  776 77065.0000 66219.1768  14.1%     -   44s
     0     0 66227.6192    0  780 77065.0000 66227.6192  14.1%     -   44s
     0     0 66551.5743    0  751 77065.0000 66551.5743  13.6%     -   44s
H    0     0                    75135.000000 66551.5743  11.4%     -   45s
     0     0 66645.3504    0  777 75135.0000 66645.3504  11.3%     -   45s
     0     0 66664.9445    0  769 75135.0000 66664.9445  11.3%     -   45s
     0     0 66960.9158    0  703 75135.0000 66960.9158  10.9%     -   46s
     0     0 67039.6493    0  718 75135.0000 67039.6493  10.8%     -   46s
     0     0 67056.7654    0  730 75135.0000 67056.7654  10.8%     -   46s
     0     0 67253.9064    0  729 75135.0000 67253.9064  10.5%     -   47s
H    0     0                    73134.000000 67253.9064  8.04%     -   47s
     0     0 67596.7653    0  745 73134.0000 67596.7653  7.57%     -   48s
     0     0 67647.7141    0  777 73134.0000 67647.7141  7.50%     -   48s
     0     0 67654.7097    0  793 73134.0000 67654.7097  7.49%     -   49s
     0     0 67765.2760    0  767 73134.0000 67765.2760  7.34%     -   49s
H    0     0                    68490.000000 67765.2760  1.06%     -   49s
     0     0 67799.7773    0  145 68490.0000 67799.7773  1.01%     -   49s
     0     0 67800.4633    0  103 68490.0000 67800.4633  1.01%     -   50s
     0     0 67811.3643    0  117 68490.0000 67811.3643  0.99%     -   50s
     0     0 67811.3643    0  131 68490.0000 67811.3643  0.99%     -   50s
H    0     0                    68487.000000 67811.3643  0.99%     -   50s
H    0     0                    68416.000000 67811.3643  0.88%     -   50s
     0     0 67811.3643    0  138 68416.0000 67811.3643  0.88%     -   50s
     0     0 67811.3643    0  152 68416.0000 67811.3643  0.88%     -   51s
     0     0 67813.9474    0  113 68416.0000 67813.9474  0.88%     -   51s
     0     0 67816.0961    0  104 68416.0000 67816.0961  0.88%     -   51s
     0     0 67816.9295    0  104 68416.0000 67816.9295  0.88%     -   51s
     0     0 67817.8331    0  104 68416.0000 67817.8331  0.87%     -   51s
     0     0 67819.0393    0  130 68416.0000 67819.0393  0.87%     -   51s
     0     0 67819.0556    0  123 68416.0000 67819.0556  0.87%     -   51s
     0     0 67836.2161    0  132 68416.0000 67836.2161  0.85%     -   51s
     0     0 67837.6315    0  119 68416.0000 67837.6315  0.85%     -   51s
     0     0 67837.6526    0  116 68416.0000 67837.6526  0.85%     -   51s
     0     0 67868.0203    0  264 68416.0000 67868.0203  0.80%     -   51s
     0     0 67872.8766    0  149 68416.0000 67872.8766  0.79%     -   51s
     0     0 67874.2670    0  138 68416.0000 67874.2670  0.79%     -   51s
     0     0 67874.3268    0  147 68416.0000 67874.3268  0.79%     -   51s
     0     0 67878.8743    0  116 68416.0000 67878.8743  0.79%     -   51s
H    0     0                    67928.000000 67878.8743  0.07%     -   51s
     0     0 67879.5994    0  111 67928.0000 67879.5994  0.07%     -   51s
     0     0 67879.6332    0  117 67928.0000 67879.6332  0.07%     -   51s
     0     0 67882.7952    0  114 67928.0000 67882.7952  0.07%     -   51s
     0     0 67882.7952    0   77 67928.0000 67882.7952  0.07%     -   51s
H    0     0                    67912.000000 67882.7952  0.04%     -   51s
     0     0 67882.7952    0   58 67912.0000 67882.7952  0.04%     -   51s
     0     0 67887.9468    0   87 67912.0000 67887.9468  0.04%     -   51s
     0     0 67889.5000    0   45 67912.0000 67889.5000  0.03%     -   51s
     0     0 67889.5000    0   51 67912.0000 67889.5000  0.03%     -   51s
     0     0 67894.6667    0   44 67912.0000 67894.6667  0.03%     -   51s
     0     0 67894.6667    0   48 67912.0000 67894.6667  0.03%     -   51s
     0     0 67901.0000    0   20 67912.0000 67901.0000  0.02%     -   51s
H    0     0                    67908.000000 67901.0000  0.01%     -   51s
*    0     0               0    67907.000000 67907.0000  0.00%     -   51s

Cutting planes:
  Cover: 3
  Clique: 14
  MIR: 3
  StrongCG: 1
  GUB cover: 10
  Mod-K: 2
  RLT: 4

Explored 1 nodes (278977 simplex iterations) in 51.55 seconds (118.14 work units)
Thread count was 8 (of 8 available processors)

Solution count 10: 67907 67908 67912 ... 68490

Optimal solution found (tolerance 1.00e-04)
Best objective 6.790700000000e+04, best bound 6.790700000000e+04, gap 0.0000%
